NAME: random-81-30060
TYPE: TSP
COMMENT: size=81 seed=30060
DIMENSION: 164
EDGE_WEIGHT_TYPE: EUC_2D
NODE_COORD_SECTION
+0 420 702
-0 420 702
+1 742 413
-1 782 998
+2 287 428
-2 784 289
+3 754 287
-3 491 646
+4 42 283
-4 725 897
+5 977 472
-5 52 124
+6 155 147
-6 632 248
+7 872 281
-7 312 143
+8 537 398
-8 78 678
+9 741 101
-9 610 906
+10 45 175
-10 799 845
+11 252 652
-11 738 142
+12 181 74
-12 180 260
+13 371 479
-13 127 165
+14 712 759
-14 290 640
+15 449 205
-15 147 710
+16 334 524
-16 620 111
+17 297 228
-17 883 951
+18 237 337
-18 72 73
+19 385 425
-19 23 796
+20 952 744
-20 768 42
+21 967 872
-21 190 405
+22 239 510
-22 457 804
+23 803 357
-23 224 750
+24 571 355
-24 815 198
+25 363 765
-25 709 760
+26 80 79
-26 980 349
+27 585 592
-27 994 889
+28 210 75
-28 146 663
+29 626 375
-29 932 480
+30 55 82
-30 410 389
+31 571 41
-31 909 283
+32 621 105
-32 206 700
+33 127 913
-33 761 475
+34 466 922
-34 710 614
+35 914 667
-35 381 329
+36 934 711
-36 239 680
+37 134 812
-37 964 50
+38 864 552
-38 628 375
+39 564 928
-39 458 980
+40 230 673
-40 586 677
+41 36 352
-41 660 597
+42 753 942
-42 439 206
+43 590 155
-43 648 46
+44 918 73
-44 353 978
+45 718 408
-45 868 458
+46 384 10
-46 844 766
+47 234 781
-47 238 857
+48 691 875
-48 660 975
+49 614 720
-49 458 990
+50 270 824
-50 649 977
+51 437 588
-51 175 419
+52 617 905
-52 788 17
+53 631 8
-53 610 396
+54 837 634
-54 795 769
+55 902 773
-55 931 87
+56 105 381
-56 150 66
+57 654 622
-57 204 409
+58 543 992
-58 861 560
+59 154 571
-59 550 50
+60 594 254
-60 362 551
+61 308 494
-61 209 281
+62 996 891
-62 641 458
+63 318 459
-63 742 208
+64 975 181
-64 870 966
+65 570 730
-65 766 121
+66 385 552
-66 324 507
+67 128 564
-67 233 999
+68 454 836
-68 358 734
+69 136 626
-69 747 793
+70 550 740
-70 638 88
+71 848 780
-71 533 604
+72 978 841
-72 240 313
+73 221 670
-73 233 835
+74 415 207
-74 413 730
+75 117 889
-75 925 80
+76 688 286
-76 719 546
+77 21 970
-77 766 675
+78 870 482
-78 557 203
+79 967 240
-79 244 714
+80 578 734
-80 522 607
+81 204 184
-81 0 154
PRECEDENCE_SECTION
+0 -0
+1 -1
+2 -2
+3 -3
+4 -4
+5 -5
+6 -6
+7 -7
+8 -8
+9 -9
+10 -10
+11 -11
+12 -12
+13 -13
+14 -14
+15 -15
+16 -16
+17 -17
+18 -18
+19 -19
+20 -20
+21 -21
+22 -22
+23 -23
+24 -24
+25 -25
+26 -26
+27 -27
+28 -28
+29 -29
+30 -30
+31 -31
+32 -32
+33 -33
+34 -34
+35 -35
+36 -36
+37 -37
+38 -38
+39 -39
+40 -40
+41 -41
+42 -42
+43 -43
+44 -44
+45 -45
+46 -46
+47 -47
+48 -48
+49 -49
+50 -50
+51 -51
+52 -52
+53 -53
+54 -54
+55 -55
+56 -56
+57 -57
+58 -58
+59 -59
+60 -60
+61 -61
+62 -62
+63 -63
+64 -64
+65 -65
+66 -66
+67 -67
+68 -68
+69 -69
+70 -70
+71 -71
+72 -72
+73 -73
+74 -74
+75 -75
+76 -76
+77 -77
+78 -78
+79 -79
+80 -80
+81 -81
EOF
